p cnf 33 21
-4 -170
-18 -286
-38 -116
-50 -386
-64 -88
-64 -384
-64 -386
-66 -88
-76 -116
-76 -218
-102 -146
-110 -384
-142 -330
-148 -398
-196 -364
-202 -270
-202 -354
-228 -372
-264 -288
-282 -396
-350 -354

